
Gurobi 9.5.0 (linux64) logging started Fri Dec  8 15:53:45 2023

Set parameter LogFile to value "/lustre1/scratch/348/vsc34888/JointResearch/05.Models/06.Benchmarking/G.Representative_days_based_on_Line_Benefit_NN_OC_fy_2/RTS24_mod1_ByStages_nc90/openStarNet_RTS24_mod1_ByStages_nc90.log"
Set parameter Method to value 2
Set parameter MIPFocus to value 1
Set parameter Presolve to value 2
Set parameter RINS to value 100
Set parameter MIPGap to value 0.01
Set parameter Threads to value 36
Set parameter TimeLimit to value 259200
Set parameter IterationLimit to value 760000000
Gurobi Optimizer version 9.5.0 build v9.5.0rc5 (linux64)
Thread count: 36 physical cores, 36 logical processors, using up to 36 threads
Optimize a model with 32308 rows, 21841 columns and 88126 nonzeros
Model fingerprint: 0xfcb6879b
Variable types: 21820 continuous, 21 integer (21 binary)
Coefficient statistics:
  Matrix range     [4e-03, 4e+02]
  Objective range  [1e+00, 1e+00]
  Bounds range     [3e-05, 3e+00]
  RHS range        [3e-05, 3e+00]
Presolve removed 19246 rows and 11085 columns
Presolve time: 0.12s
Presolved: 13062 rows, 10756 columns, 47179 nonzeros
Variable types: 10735 continuous, 21 integer (21 binary)
Found heuristic solution: objective 104.1990614
Root relaxation presolve removed 2 rows and 2 columns
Root relaxation presolved: 13060 rows, 10754 columns, 47175 nonzeros

Root barrier log...

Ordering time: 0.00s

Barrier statistics:
 Dense cols : 21
 AA' NZ     : 8.764e+04
 Factor NZ  : 2.509e+05 (roughly 12 MB of memory)
 Factor Ops : 5.144e+06 (less than 1 second per iteration)
 Threads    : 36

                  Objective                Residual
Iter       Primal          Dual         Primal    Dual     Compl     Time
   0   2.71737519e+06 -7.93675906e+07  2.23e+01 1.53e+02  2.14e+04     0s
   1   9.27432119e+05 -4.25763480e+07  7.49e+00 1.53e+01  6.53e+03     0s
   2   7.10058503e+04 -3.31446331e+07  4.76e-01 8.35e+00  1.38e+03     0s
   3   2.84188865e+04 -3.60956542e+06  9.22e-02 8.95e-10  1.36e+02     0s
   4   1.66323079e+04 -3.54882047e+05  4.96e-03 6.72e-11  1.23e+01     0s
   5   7.79485803e+03 -7.05862173e+04  8.30e-04 1.18e-11  2.58e+00     0s
   6   1.49428185e+03 -1.07963529e+04  8.11e-05 3.89e-12  4.04e-01     0s
   7   5.77916421e+02 -3.22013262e+03  1.42e-05 1.04e-12  1.25e-01     0s
   8   3.34214168e+02 -7.39549493e+02  5.06e-06 4.55e-13  3.53e-02     0s
   9   2.05692920e+02 -3.51590422e+02  2.33e-06 9.09e-13  1.83e-02     0s
  10   1.31917809e+02 -8.83320601e+01  1.06e-06 9.09e-13  7.23e-03     0s
  11   8.81835931e+01 -5.85310016e+00  4.20e-07 1.82e-12  3.09e-03     0s
  12   7.89195469e+01  3.65990578e+01  3.00e-07 2.73e-12  1.39e-03     0s
  13   7.55358022e+01  4.49593843e+01  2.55e-07 9.09e-13  1.00e-03     0s
  14   7.27833169e+01  4.59770963e+01  2.18e-07 9.09e-13  8.80e-04     0s
  15   7.00405695e+01  4.81164989e+01  1.82e-07 9.09e-13  7.20e-04     0s
  16   6.87711869e+01  5.01478483e+01  1.65e-07 4.55e-13  6.11e-04     0s
  17   6.62119442e+01  5.23508820e+01  1.32e-07 9.09e-13  4.55e-04     0s
  18   6.18505339e+01  5.40165503e+01  7.16e-08 9.09e-13  2.57e-04     0s
  19   5.92949151e+01  5.53785563e+01  3.58e-08 4.55e-13  1.29e-04     0s
  20   5.88656080e+01  5.58301653e+01  2.94e-08 9.09e-13  9.97e-05     0s
  21   5.76934913e+01  5.59816989e+01  1.23e-08 4.55e-13  5.62e-05     0s
  22   5.76224383e+01  5.62314257e+01  1.12e-08 4.55e-13  4.57e-05     0s
  23   5.71926904e+01  5.65425208e+01  5.27e-09 4.55e-13  2.13e-05     0s
  24   5.69066723e+01  5.67556291e+01  1.30e-09 1.82e-12  4.96e-06     0s
  25   5.68240878e+01  5.67978450e+01  1.99e-10 9.09e-13  8.62e-07     0s
  26   5.68152674e+01  5.68045319e+01  9.35e-11 9.09e-13  3.52e-07     0s
  27   5.68090738e+01  5.68070654e+01  1.01e-10 9.09e-13  6.59e-08     0s
  28   5.68077085e+01  5.68074936e+01  6.83e-11 4.55e-13  7.06e-09     0s
  29   5.68075460e+01  5.68075390e+01  3.84e-10 9.09e-13  2.29e-10     0s
  30   5.68075446e+01  5.68075446e+01  1.41e-10 6.82e-13  2.64e-13     1s

Barrier solved model in 30 iterations and 0.51 seconds (0.42 work units)
Optimal objective 5.68075446e+01


Root relaxation: objective 5.680754e+01, 2119 iterations, 0.35 seconds (0.25 work units)

    Nodes    |    Current Node    |     Objective Bounds      |     Work
 Expl Unexpl |  Obj  Depth IntInf | Incumbent    BestBd   Gap | It/Node Time

     0     0   56.80754    0   19  104.19906   56.80754  45.5%     -    0s
     0     0   57.48305    0   11  104.19906   57.48305  44.8%     -    1s
H    0     0                     100.3061218   57.48305  42.7%     -    1s
H    0     0                      94.4037492   57.48305  39.1%     -    1s
     0     0   57.48305    0   11   94.40375   57.48305  39.1%     -    1s
H    0     0                      91.1985909   57.68720  36.7%     -    1s
     0     0   57.72357    0   15   91.19859   57.72357  36.7%     -    1s
     0     0   57.72357    0   13   91.19859   57.72357  36.7%     -    1s
     0     0   57.79481    0   14   91.19859   57.79481  36.6%     -    2s
H    0     0                      87.9745639   57.80506  34.3%     -    2s
     0     0   57.80506    0   14   87.97456   57.80506  34.3%     -    2s
     0     0   57.93659    0   13   87.97456   57.93659  34.1%     -    2s
     0     0   58.51193    0   14   87.97456   58.51193  33.5%     -    2s
     0     0   58.51193    0   14   87.97456   58.51193  33.5%     -    2s
H    0     0                      83.7530856   58.79051  29.8%     -    3s
     0     0   58.79051    0   10   83.75309   58.79051  29.8%     -    3s
H    0     0                      80.6282925   58.79051  27.1%     -    3s
H    0     0                      75.5313359   58.79051  22.2%     -    6s
     0     2   58.79051    0   10   75.53134   58.79051  22.2%     -    6s
    99   128   62.79342    7   14   75.53134   61.45733  18.6%   519   10s
H  101   128                      74.8730420   61.45733  17.9%   515   10s
   135   149   64.50290    8   13   74.87304   61.45733  17.9%   482   15s
H  138   149                      74.7508125   61.45733  17.8%   481   15s
   766   257   70.20719   10   11   74.75081   61.51981  17.7%   361   20s
  1183   259   66.96026    8   12   74.75081   64.59713  13.6%   328   25s
  1592   208     cutoff   10        74.75081   66.03533  11.7%   298   31s
  2395    25     cutoff   10        74.75081   68.26086  8.68%   258   43s
  2496    25   72.33667    8    9   74.75081   68.64564  8.17%   255   49s
  2686     5     cutoff   16        74.75081   71.94638  3.75%   248   50s

Cutting planes:
  Gomory: 1
  Implied bound: 2
  MIR: 333
  Relax-and-lift: 47

Explored 2729 nodes (677009 simplex iterations) in 50.27 seconds (62.23 work units)
Thread count was 36 (of 36 available processors)

Solution count 10: 74.7508 74.873 75.5313 ... 104.199

Optimal solution found (tolerance 1.00e-02)
Best objective 7.475081254776e+01, best bound 7.475081254776e+01, gap 0.0000%

Gurobi 9.5.0 (linux64) logging started Fri Dec  8 15:54:39 2023

Set parameter LogFile to value "/lustre1/scratch/348/vsc34888/JointResearch/05.Models/06.Benchmarking/G.Representative_days_based_on_Line_Benefit_NN_OC_fy_2/RTS24_mod1_ByStages_nc90/openStarNet_RTS24_mod1_ByStages_nc90.log"
Set parameter Method to value 2
Set parameter MIPFocus to value 1
Set parameter Presolve to value 2
Set parameter RINS to value 100
Set parameter MIPGap to value 0.01
Set parameter Threads to value 36
Set parameter TimeLimit to value 259200
Set parameter IterationLimit to value 760000000
No parameters matching 'relax_integrality' found
Gurobi Optimizer version 9.5.0 build v9.5.0rc5 (linux64)
Thread count: 36 physical cores, 36 logical processors, using up to 36 threads
Optimize a model with 32308 rows, 21820 columns and 80461 nonzeros
Model fingerprint: 0xaa1f59bf
Coefficient statistics:
  Matrix range     [4e-03, 4e+02]
  Objective range  [1e+00, 1e+00]
  Bounds range     [3e-05, 3e+00]
  RHS range        [3e-05, 2e+01]
Presolve removed 27141 rows and 12560 columns
Presolve time: 0.04s
Presolved: 5167 rows, 9485 columns, 22680 nonzeros

Ordering time: 0.00s

Barrier statistics:
 AA' NZ     : 1.234e+04
 Factor NZ  : 4.500e+04 (roughly 5 MB of memory)
 Factor Ops : 5.588e+05 (less than 1 second per iteration)
 Threads    : 1

                  Objective                Residual
Iter       Primal          Dual         Primal    Dual     Compl     Time
   0   5.01762421e+06 -4.47664128e+07  3.66e+01 7.13e+02  7.11e+04     0s
   1   3.15211601e+05 -3.91334583e+07  2.24e+00 2.48e+02  6.26e+03     0s
   2   6.91668652e+04 -1.55241903e+07  4.36e-01 2.01e+01  1.42e+03     0s
   3   3.52551100e+04 -5.60069689e+06  1.20e-01 2.41e+00  4.14e+02     0s
   4   2.48530503e+04 -1.20156465e+06  3.31e-02 1.68e-11  8.14e+01     0s
   5   1.63405028e+04 -3.21729209e+05  7.11e-04 1.44e-11  2.06e+01     0s
   6   8.50206027e+03 -6.40575166e+04  5.11e-05 3.83e-11  4.41e+00     0s
   7   1.45404753e+03 -6.58067426e+03  4.08e-07 3.64e-12  4.88e-01     0s
   8   4.15008291e+02 -1.41200566e+03  7.21e-10 1.82e-12  1.11e-01     0s
   9   2.53438911e+02 -4.82873966e+02  7.80e-11 1.82e-12  4.47e-02     0s
  10   1.81622720e+02 -1.47345243e+02  3.76e-11 3.64e-12  2.00e-02     0s
  11   1.22306989e+02 -2.51191164e+01  1.59e-11 1.82e-12  8.95e-03     0s
  12   9.96001911e+01  2.17211819e+01  1.23e-11 9.09e-13  4.73e-03     0s
  13   8.02639986e+01  6.26517528e+01  1.66e-11 1.82e-12  1.07e-03     0s
  14   7.60487882e+01  7.26521763e+01  8.20e-12 3.64e-12  2.06e-04     0s
  15   7.49973854e+01  7.43141234e+01  3.43e-11 1.82e-12  4.15e-05     0s
  16   7.48354406e+01  7.46309976e+01  3.28e-11 1.82e-12  1.24e-05     0s
  17   7.47639871e+01  7.47125233e+01  9.00e-11 1.82e-12  3.12e-06     0s
  18   7.47530447e+01  7.47468840e+01  2.73e-10 3.64e-12  3.74e-07     0s
  19   7.47508273e+01  7.47507858e+01  5.30e-11 3.64e-12  2.52e-09     0s
  20   7.47508126e+01  7.47508125e+01  2.66e-09 3.64e-12  2.75e-12     0s
  21   7.47508125e+01  7.47508125e+01  8.20e-10 3.64e-12  2.75e-15     0s

Barrier solved model in 21 iterations and 0.12 seconds (0.11 work units)
Optimal objective 7.47508125e+01

Crossover log...

    1173 DPushes remaining with DInf 0.0000000e+00                 0s
       0 DPushes remaining with DInf 0.0000000e+00                 0s

     290 PPushes remaining with PInf 0.0000000e+00                 0s
       0 PPushes remaining with PInf 0.0000000e+00                 0s

  Push phase complete: Pinf 0.0000000e+00, Dinf 6.9911689e-13      0s

Iteration    Objective       Primal Inf.    Dual Inf.      Time
     306    7.4750813e+01   0.000000e+00   0.000000e+00      0s

Use crossover to convert LP symmetric solution to basic solution...
Crossover log...

       0 DPushes remaining with DInf 0.0000000e+00                 0s

     220 PPushes remaining with PInf 0.0000000e+00                 0s
       0 PPushes remaining with PInf 0.0000000e+00                 0s

  Push phase complete: Pinf 0.0000000e+00, Dinf 6.9549574e-13      0s

Iteration    Objective       Primal Inf.    Dual Inf.      Time
     534    7.4750813e+01   0.000000e+00   0.000000e+00      0s

Solved in 534 iterations and 0.16 seconds (0.13 work units)
Optimal objective  7.475081255e+01
